
******************************************************************************
This program contains Ipopt, a library for large-scale nonlinear optimization.
 Ipopt is released as open source code under the Eclipse Public License (EPL).
         For more information visit http://projects.coin-or.org/Ipopt
******************************************************************************

This is Ipopt version 3.12.6, running with linear solver ma57.

Number of nonzeros in equality constraint Jacobian...:        0
Number of nonzeros in inequality constraint Jacobian.:      351
Number of nonzeros in Lagrangian Hessian.............:       15

Total number of variables............................:        5
                     variables with only lower bounds:        0
                variables with lower and upper bounds:        0
                     variables with only upper bounds:        0
Total number of equality constraints.................:        0
Total number of inequality constraints...............:      102
        inequality constraints with only lower bounds:      102
   inequality constraints with lower and upper bounds:        0
        inequality constraints with only upper bounds:        0

iter    objective    inf_pr   inf_du lg(mu)  ||d||  lg(rg) alpha_du alpha_pr  ls
   0  1.4990449e+02 0.00e+00 1.97e+00  -1.0 0.00e+00    -  0.00e+00 0.00e+00   0
   1  1.2074746e+02 0.00e+00 8.07e+00  -1.0 5.72e-01    -  8.35e-01 1.00e+00f  1
   2  6.9384058e+01 0.00e+00 4.12e+01  -1.0 2.16e+00    -  4.86e-01 1.00e+00f  1
   3  3.9458640e+01 0.00e+00 1.63e+01  -1.0 3.37e+00    -  5.66e-01 1.00e+00f  1
   4  2.2847154e+01 0.00e+00 7.95e+00  -1.0 7.99e+00    -  7.45e-01 1.00e+00f  1
   5  1.7066150e+01 0.00e+00 4.36e+00  -1.0 3.01e+01    -  4.86e-01 1.00e+00f  1
   6  1.6502238e+01 0.00e+00 1.23e+00  -1.0 6.27e+01    -  7.33e-01 1.00e+00f  1
   7  2.4829797e+01 0.00e+00 8.29e-01  -1.0 2.08e+02    -  4.23e-01 1.00e+00f  1
   8  2.0219096e+01 0.00e+00 6.03e-02  -1.7 9.56e+01    -  8.67e-01 1.00e+00f  1
   9  1.1607910e+01 0.00e+00 6.90e-02  -2.5 1.76e+02    -  9.42e-01 1.00e+00f  1
iter    objective    inf_pr   inf_du lg(mu)  ||d||  lg(rg) alpha_du alpha_pr  ls
  10  1.1731026e+01 0.00e+00 1.15e-01  -2.5 8.94e+02    -  5.05e-01 8.80e-01f  1
  11  1.4897362e+01 0.00e+00 5.95e-02  -2.5 2.82e+03    -  3.55e-01 1.00e+00f  1
  12  1.4894106e+01 0.00e+00 4.68e-05  -2.5 4.68e-01  -4.0 1.00e+00 1.00e+00f  1
  13  1.0882909e+01 0.00e+00 2.40e-03  -3.8 1.07e+04    -  1.00e+00 1.03e-01f  1
  14  9.1172281e+00 0.00e+00 5.45e-04  -3.8 2.01e+02    -  9.79e-01 1.00e+00f  1
  15  7.4750635e+00 0.00e+00 1.24e-02  -3.8 1.27e+04    -  1.00e+00 1.36e-01f  1
  16  6.7212964e+00 0.00e+00 1.11e-02  -3.8 8.78e+02    -  4.62e-01 4.17e-01f  1
  17  5.3319436e+00 0.00e+00 2.06e-02  -3.8 9.07e+03    -  7.22e-02 4.28e-02f  1
  18  2.0039769e+00 0.00e+00 8.59e-02  -3.8 6.48e+02    -  1.82e-02 5.61e-01f  1
  19  1.9061186e+00 0.00e+00 2.55e-03  -3.8 2.08e+00  -4.5 2.15e-01 1.00e+00f  1
iter    objective    inf_pr   inf_du lg(mu)  ||d||  lg(rg) alpha_du alpha_pr  ls
  20  1.5986639e+00 0.00e+00 4.36e-04  -3.8 5.81e+00  -5.0 1.00e+00 1.00e+00f  1
  21  1.3817886e+00 0.00e+00 1.65e-03  -5.7 2.41e+01  -5.4 6.99e-01 3.10e-01f  1
  22  9.7151174e-01 0.00e+00 8.05e-03  -5.7 1.09e+02  -5.9 8.19e-02 1.45e-01f  1
  23  1.5966529e-02 0.00e+00 1.75e-01  -5.7 2.87e+02  -6.4 1.02e-02 1.30e-01f  1
  24  1.7561897e-02 0.00e+00 1.84e-03  -5.7 2.80e+00    -  3.55e-01 1.00e+00f  1
  25  8.7726853e-03 0.00e+00 1.25e-03  -5.7 1.77e+00    -  4.85e-01 6.12e-01f  1
  26  5.9664345e-03 0.00e+00 7.60e-04  -5.7 1.04e+00    -  6.35e-01 6.04e-01f  1
  27  7.1046430e-03 0.00e+00 3.90e-04  -5.7 4.46e-01    -  2.45e-01 1.00e+00f  1
  28  5.7912050e-03 0.00e+00 9.94e-05  -5.7 3.33e-01    -  9.68e-01 1.00e+00f  1
  29  6.0154881e-03 0.00e+00 2.08e-06  -5.7 5.17e-02    -  1.00e+00 1.00e+00f  1
iter    objective    inf_pr   inf_du lg(mu)  ||d||  lg(rg) alpha_du alpha_pr  ls
  30  5.1656956e-03 0.00e+00 1.62e-05  -8.6 2.35e-01    -  1.00e+00 6.00e-01f  1
  31  5.0573392e-03 0.00e+00 8.16e-05  -8.6 5.27e-02    -  7.97e-01 4.57e-01f  1
  32  5.0211150e-03 0.00e+00 3.72e-06  -8.6 5.79e-02    -  9.32e-01 9.82e-01f  1
  33  5.0197923e-03 0.00e+00 1.50e-08  -8.6 5.39e-03    -  1.00e+00 1.00e+00f  1
  34  5.0195112e-03 0.00e+00 6.36e-11  -9.0 3.13e-04    -  1.00e+00 1.00e+00h  1

Number of Iterations....: 34

                                   (scaled)                 (unscaled)
Objective...............:   1.2490928780783383e-04    5.0195111566874364e-03
Dual infeasibility......:   6.3635086783309092e-11    2.5571919724416248e-09
Constraint violation....:   0.0000000000000000e+00    0.0000000000000000e+00
Complementarity.........:   9.2277506656661001e-10    3.7081948212449870e-08
Overall NLP error.......:   9.2277506656661001e-10    3.7081948212449870e-08


Number of objective function evaluations             = 35
Number of objective gradient evaluations             = 35
Number of equality constraint evaluations            = 0
Number of inequality constraint evaluations          = 35
Number of equality constraint Jacobian evaluations   = 0
Number of inequality constraint Jacobian evaluations = 35
Number of Lagrangian Hessian evaluations             = 34
Total CPU secs in IPOPT (w/o function evaluations)   =      0.013
Total CPU secs in NLP function evaluations           =      0.000

EXIT: Optimal Solution Found.

************************ CUTEst statistics ************************


 Package used            :  IPOPT
 Problem                 :  EXPFITB   
 # variables             =               5
 # constraints           =             102
 # objective functions   =        0.7100000E+02
 # objective gradients   =        0.3600000E+02
 # objective Hessians    =        0.3500000E+02
 # Hessian-vector prdct  =        0.0000000E+00
 # constraints functions =        0.7200000E+02
 # constraints gradients =        0.3700000E+02
 # constraints Hessians  =        0.3500000E+02
 Exit code               =               0
 Final f                 =   0.5019511E-02
 Set up time             =            0.00 seconds
 Solve time              =            0.06 seconds


******************************************************************

System Time =       0.0160000008 s.
